1 0 1 0 0 1 1 0 
0 39 25 15 48 14 8 39 
39 0 15 47 8 45 11 24 
25 15 0 40 52 26 37 15 
15 47 40 0 24 39 31 39 
48 8 52 24 0 7 8 28 
14 45 26 39 7 0 8 25 
8 11 37 31 8 8 0 22 
39 24 15 39 28 25 22 0 
4 31
1P 4B 8B 3P 2B 5B 6P 7P = 115